0
Node Left Objective IInf Best_Integer Best_Bound ItCnt Gap
0+ 0 nan nan 136.4723 0.0000 nan 100.00%
0+ 0 nan nan 99.1655 0.0000 nan 100.00%
0 0 0.0000 28 99.1655 0.0000 111 100.00%
0+ 0 nan nan 89.4344 0.0000 nan 100.00%
0+ 0 nan nan 84.2873 0.0000 nan 100.00%
0+ 0 nan nan 83.4786 0.0000 nan 100.00%
0 2 0.0000 26 83.4786 0.0000 111 100.00%
CPXPARAM_MIP_Cuts_Gomory-Disjunctive:Gomory 0
CPXPARAM_MIP_Cuts_Gomory-Disjunctive:Disjunctive 0
1
Node Left Objective IInf Best_Integer Best_Bound ItCnt Gap
0+ 0 nan nan 136.4723 0.0000 nan 100.00%
0+ 0 nan nan 99.1655 0.0000 nan 100.00%
0 0 0.0000 31 99.1655 0.0000 106 100.00%
0+ 0 nan nan 74.7431 0.0000 nan 100.00%
0+ 0 nan nan 73.5517 0.0000 nan 100.00%
0+ 0 nan nan 67.5650 0.0000 nan 100.00%
0+ 0 nan nan 53.6447 0.0000 nan 100.00%
0 2 0.0000 18 53.6447 0.0000 106 100.00%
CPXPARAM_MIP_Cuts_Gomory-Disjunctive:Gomory 0
CPXPARAM_MIP_Cuts_Gomory-Disjunctive:Disjunctive 0
2
Node Left Objective IInf Best_Integer Best_Bound ItCnt Gap
0+ 0 nan nan 136.4723 0.0000 nan 100.00%
0+ 0 nan nan 69.8576 0.0000 nan 100.00%
0 0 0.0000 23 69.8576 0.0000 113 100.00%
0 0 0.0000 21 69.8576 Fract:1 116 100.00%
0 0 0.0000 21 69.8576 Cuts:21 149 100.00%
0 0 0.0000 21 69.8576 Cuts:16 195 100.00%
0+ 0 nan nan 65.7412 0.0000 nan 100.00%
0+ 0 nan nan 62.6558 0.0000 nan 100.00%
0+ 0 nan nan 55.4517 0.0000 nan 100.00%
0 2 0.0000 21 55.4517 0.0000 195 100.00%
CPXPARAM_MIP_Cuts_Gomory-Disjunctive:Gomory 3
CPXPARAM_MIP_Cuts_Gomory-Disjunctive:Disjunctive 6
3
Node Left Objective IInf Best_Integer Best_Bound ItCnt Gap
0+ 0 nan nan 136.4723 0.0000 nan 100.00%
0 0 0.0000 28 136.4723 0.0000 97 100.00%
0+ 0 nan nan 39.4022 0.0000 nan 100.00%
0+ 0 nan nan 38.0536 0.0000 nan 100.00%
0+ 0 nan nan 26.3184 0.0000 nan 100.00%
0 2 0.0000 13 26.3184 0.0000 97 100.00%
CPXPARAM_MIP_Cuts_Gomory-Disjunctive:Gomory 0
CPXPARAM_MIP_Cuts_Gomory-Disjunctive:Disjunctive 0
4
Node Left Objective IInf Best_Integer Best_Bound ItCnt Gap
0+ 0 nan nan 115.1924 0.0000 nan 100.00%
0+ 0 nan nan 108.1598 0.0000 nan 100.00%
0 0 0.0000 27 108.1598 0.0000 113 100.00%
0+ 0 nan nan 104.3379 0.0000 nan 100.00%
0 0 0.0000 26 104.3379 Disjcuts:3 129 100.00%
0+ 0 nan nan 86.5783 0.0000 nan 100.00%
0 0 0.0000 27 86.5783 Cuts:21 182 100.00%
0 0 0.0000 25 86.5783 Disjcuts:2 195 100.00%
0+ 0 nan nan 68.0871 0.0000 nan 100.00%
0 2 0.0000 25 68.0871 0.0000 195 100.00%
CPXPARAM_MIP_Cuts_Gomory-Disjunctive:Gomory 0
CPXPARAM_MIP_Cuts_Gomory-Disjunctive:Disjunctive 2
5
Node Left Objective IInf Best_Integer Best_Bound ItCnt Gap
0+ 0 nan nan 115.1924 0.0000 nan 100.00%
0+ 0 nan nan 108.1598 0.0000 nan 100.00%
0 0 0.0000 30 108.1598 0.0000 101 100.00%
0+ 0 nan nan 67.1398 0.0000 nan 100.00%
0+ 0 nan nan 51.4818 0.0000 nan 100.00%
0+ 0 nan nan 32.9566 0.0000 nan 100.00%
0 2 0.0000 19 32.9566 0.0000 101 100.00%
CPXPARAM_MIP_Cuts_Gomory-Disjunctive:Gomory 0
CPXPARAM_MIP_Cuts_Gomory-Disjunctive:Disjunctive 0
6
Node Left Objective IInf Best_Integer Best_Bound ItCnt Gap
0+ 0 nan nan 115.1924 0.0000 nan 100.00%
0+ 0 nan nan 81.9438 0.0000 nan 100.00%
0 0 0.0000 24 81.9438 0.0000 119 100.00%
0 0 0.0000 20 81.9438 Disjcuts:4 153 100.00%
0+ 0 nan nan 76.8972 0.0000 nan 100.00%
0 0 0.0000 21 76.8972 Cuts:22 174 100.00%
0 0 0.0000 22 76.8972 Cuts:13 190 100.00%
0+ 0 nan nan 57.0193 0.0000 nan 100.00%
0 2 0.0000 22 57.0193 0.0000 190 100.00%
CPXPARAM_MIP_Cuts_Gomory-Disjunctive:Gomory 1
CPXPARAM_MIP_Cuts_Gomory-Disjunctive:Disjunctive 3
7
Node Left Objective IInf Best_Integer Best_Bound ItCnt Gap
0+ 0 nan nan 115.1924 0.0000 nan 100.00%
0 0 0.0000 30 115.1924 0.0000 95 100.00%
0+ 0 nan nan 56.4052 0.0000 nan 100.00%
0+ 0 nan nan 43.2799 0.0000 nan 100.00%
0+ 0 nan nan 33.9395 0.0000 nan 100.00%
0 2 0.0000 13 33.9395 0.0000 95 100.00%
CPXPARAM_MIP_Cuts_Gomory-Disjunctive:Gomory 0
CPXPARAM_MIP_Cuts_Gomory-Disjunctive:Disjunctive 0
8
Node Left Objective IInf Best_Integer Best_Bound ItCnt Gap
0+ 0 nan nan 131.6037 0.0000 nan 100.00%
0+ 0 nan nan 111.2422 0.0000 nan 100.00%
0 0 0.0000 28 111.2422 0.0000 113 100.00%
0 0 0.0000 25 111.2422 Disjcuts:1 119 100.00%
0 0 0.0000 26 111.2422 Cuts:31 161 100.00%
0 0 0.0000 26 111.2422 Disjcuts:1 167 100.00%
0+ 0 nan nan 101.7819 0.0000 nan 100.00%
0+ 0 nan nan 96.5984 0.0000 nan 100.00%
0+ 0 nan nan 90.6350 0.0000 nan 100.00%
0 2 0.0000 26 90.6350 0.0000 167 100.00%
CPXPARAM_MIP_Cuts_Gomory-Disjunctive:Gomory 0
CPXPARAM_MIP_Cuts_Gomory-Disjunctive:Disjunctive 2
9
Node Left Objective IInf Best_Integer Best_Bound ItCnt Gap
0+ 0 nan nan 131.6037 0.0000 nan 100.00%
0 0 0.0000 27 131.6037 0.0000 90 100.00%
0+ 0 nan nan 78.9542 0.0000 nan 100.00%
0+ 0 nan nan 72.9282 0.0000 nan 100.00%
0+ 0 nan nan 72.3116 0.0000 nan 100.00%
0+ 0 nan nan 57.8894 0.0000 nan 100.00%
0+ 0 nan nan 52.2569 0.0000 nan 100.00%
0 2 0.0000 19 52.2569 0.0000 90 100.00%
CPXPARAM_MIP_Cuts_Gomory-Disjunctive:Gomory 0
CPXPARAM_MIP_Cuts_Gomory-Disjunctive:Disjunctive 0
10
Node Left Objective IInf Best_Integer Best_Bound ItCnt Gap
0+ 0 nan nan 131.6037 0.0000 nan 100.00%
0+ 0 nan nan 99.6733 0.0000 nan 100.00%
0 0 0.0000 23 99.6733 0.0000 104 100.00%
0 0 0.0000 20 99.6733 Cuts:8 114 100.00%
0 0 0.0000 21 99.6733 Cuts:25 153 100.00%
0 0 0.0000 21 99.6733 Cuts:19 198 100.00%
0+ 0 nan nan 72.4699 0.0000 nan 100.00%
0 2 0.0000 21 72.4699 0.0000 198 100.00%
CPXPARAM_MIP_Cuts_Gomory-Disjunctive:Gomory 1
CPXPARAM_MIP_Cuts_Gomory-Disjunctive:Disjunctive 7
11
Node Left Objective IInf Best_Integer Best_Bound ItCnt Gap
0+ 0 nan nan 131.6037 0.0000 nan 100.00%
0 0 0.0000 27 131.6037 0.0000 91 100.00%
0+ 0 nan nan 80.8991 0.0000 nan 100.00%
0+ 0 nan nan 61.1346 0.0000 nan 100.00%
0+ 0 nan nan 59.5565 0.0000 nan 100.00%
0+ 0 nan nan 58.6083 0.0000 nan 100.00%
0+ 0 nan nan 50.1961 0.0000 nan 100.00%
0 2 0.0000 15 50.1961 0.0000 91 100.00%
CPXPARAM_MIP_Cuts_Gomory-Disjunctive:Gomory 0
CPXPARAM_MIP_Cuts_Gomory-Disjunctive:Disjunctive 0
12
Node Left Objective IInf Best_Integer Best_Bound ItCnt Gap
0+ 0 nan nan 110.3567 0.0000 nan 100.00%
0+ 0 nan nan 96.6816 0.0000 nan 100.00%
0 0 0.0000 28 96.6816 0.0000 120 100.00%
0+ 0 nan nan 90.9897 0.0000 nan 100.00%
0+ 0 nan nan 85.8097 0.0000 nan 100.00%
0 2 0.0000 25 85.8097 0.0000 120 100.00%
CPXPARAM_MIP_Cuts_Gomory-Disjunctive:Gomory 0
CPXPARAM_MIP_Cuts_Gomory-Disjunctive:Disjunctive 0
13
Node Left Objective IInf Best_Integer Best_Bound ItCnt Gap
0+ 0 nan nan 110.3567 0.0000 nan 100.00%
0 0 0.0000 29 110.3567 0.0000 95 100.00%
0+ 0 nan nan 73.5274 0.0000 nan 100.00%
0+ 0 nan nan 58.1615 0.0000 nan 100.00%
0 2 0.0000 19 58.1615 0.0000 95 100.00%
CPXPARAM_MIP_Cuts_Gomory-Disjunctive:Gomory 0
CPXPARAM_MIP_Cuts_Gomory-Disjunctive:Disjunctive 0
14
Node Left Objective IInf Best_Integer Best_Bound ItCnt Gap
0+ 0 nan nan 110.3567 0.0000 nan 100.00%
0+ 0 nan nan 82.1268 0.0000 nan 100.00%
0 0 0.0000 23 82.1268 0.0000 108 100.00%
0 0 0.0000 22 82.1268 Disjcuts:6 121 100.00%
0 0 0.0000 20 82.1268 Cuts:21 156 100.00%
0+ 0 nan nan 79.8881 0.0000 nan 100.00%
0 0 0.0000 25 79.8881 Cuts:21 212 100.00%
0 0 0.0000 22 79.8881 Disjcuts:5 222 100.00%
0+ 0 nan nan 75.1995 0.0000 nan 100.00%
0+ 0 nan nan 73.4285 0.0000 nan 100.00%
0+ 0 nan nan 68.3806 0.0000 nan 100.00%
0 2 0.0000 21 68.3806 0.0000 222 100.00%
CPXPARAM_MIP_Cuts_Gomory-Disjunctive:Gomory 1
CPXPARAM_MIP_Cuts_Gomory-Disjunctive:Disjunctive 0
15
Node Left Objective IInf Best_Integer Best_Bound ItCnt Gap
0+ 0 nan nan 110.3567 0.0000 nan 100.00%
0 0 0.0000 30 110.3567 0.0000 91 100.00%
0+ 0 nan nan 60.8183 0.0000 nan 100.00%
0+ 0 nan nan 51.0672 0.0000 nan 100.00%
0+ 0 nan nan 40.5427 0.0000 nan 100.00%
0 2 0.0000 13 40.5427 0.0000 91 100.00%
CPXPARAM_MIP_Cuts_Gomory-Disjunctive:Gomory 0
CPXPARAM_MIP_Cuts_Gomory-Disjunctive:Disjunctive 0
16
Node Left Objective IInf Best_Integer Best_Bound ItCnt Gap
0+ 0 nan nan 109.2984 0.0000 nan 100.00%
0+ 0 nan nan 97.6971 0.0000 nan 100.00%
0 0 0.0000 29 97.6971 0.0000 108 100.00%
0 0 0.0000 25 97.6971 Cuts:8 131 100.00%
0 0 0.0000 29 97.6971 Cuts:25 188 100.00%
0 0 0.0000 25 97.6971 Cuts:7 227 100.00%
0 0 0.0000 26 97.6971 Cuts:25 277 100.00%
0+ 0 nan nan 94.6002 0.0000 nan 100.00%
0+ 0 nan nan 93.7779 0.0000 nan 100.00%
0 2 0.0000 25 93.7779 0.0000 277 100.00%
CPXPARAM_MIP_Cuts_Gomory-Disjunctive:Gomory 0
CPXPARAM_MIP_Cuts_Gomory-Disjunctive:Disjunctive 3
17
Node Left Objective IInf Best_Integer Best_Bound ItCnt Gap
0+ 0 nan nan 109.2984 0.0000 nan 100.00%
0+ 0 nan nan 97.6971 0.0000 nan 100.00%
0 0 0.0000 28 97.6971 0.0000 90 100.00%
0+ 0 nan nan 86.4966 0.0000 nan 100.00%
0+ 0 nan nan 69.6270 0.0000 nan 100.00%
0+ 0 nan nan 67.3836 0.0000 nan 100.00%
0+ 0 nan nan 45.8824 0.0000 nan 100.00%
0 2 0.0000 19 45.8824 0.0000 90 100.00%
CPXPARAM_MIP_Cuts_Gomory-Disjunctive:Gomory 0
CPXPARAM_MIP_Cuts_Gomory-Disjunctive:Disjunctive 0
18
Node Left Objective IInf Best_Integer Best_Bound ItCnt Gap
0+ 0 nan nan 109.2984 0.0000 nan 100.00%
0+ 0 nan nan 86.6088 0.0000 nan 100.00%
0 0 0.0000 23 86.6088 0.0000 113 100.00%
0 0 0.0000 21 86.6088 Cuts:7 127 100.00%
0 0 0.0000 22 86.6088 Cuts:27 161 100.00%
0 0 0.0000 23 86.6088 Cuts:22 214 100.00%
0+ 0 nan nan 78.3835 0.0000 nan 100.00%
0+ 0 nan nan 68.8561 0.0000 nan 100.00%
0 2 0.0000 23 68.8561 0.0000 214 100.00%
CPXPARAM_MIP_Cuts_Gomory-Disjunctive:Gomory 1
CPXPARAM_MIP_Cuts_Gomory-Disjunctive:Disjunctive 5
19
Node Left Objective IInf Best_Integer Best_Bound ItCnt Gap
0+ 0 nan nan 109.2984 0.0000 nan 100.00%
0 0 0.0000 26 109.2984 0.0000 87 100.00%
0+ 0 nan nan 64.4883 0.0000 nan 100.00%
0+ 0 nan nan 56.0213 0.0000 nan 100.00%
0+ 0 nan nan 51.9445 0.0000 nan 100.00%
0 2 0.0000 13 51.9445 0.0000 87 100.00%
CPXPARAM_MIP_Cuts_Gomory-Disjunctive:Gomory 0
CPXPARAM_MIP_Cuts_Gomory-Disjunctive:Disjunctive 0
20
Node Left Objective IInf Best_Integer Best_Bound ItCnt Gap
0+ 0 nan nan 93.3792 0.0000 nan 100.00%
0+ 0 nan nan 84.6822 0.0000 nan 100.00%
0 0 0.0000 27 84.6822 0.0000 110 100.00%
0+ 0 nan nan 79.4096 0.0000 nan 100.00%
0 0 0.0000 27 79.4096 Cuts:10 124 100.00%
0+ 0 nan nan 67.6712 0.0000 nan 100.00%
0 0 0.0000 25 67.6712 Cuts:4 132 100.00%
0 0 0.0000 27 67.6712 Cuts:19 183 100.00%
0+ 0 nan nan 63.7971 0.0000 nan 100.00%
0 2 0.0000 26 63.7971 0.0000 183 100.00%
CPXPARAM_MIP_Cuts_Gomory-Disjunctive:Gomory 0
CPXPARAM_MIP_Cuts_Gomory-Disjunctive:Disjunctive 0
21
Node Left Objective IInf Best_Integer Best_Bound ItCnt Gap
0+ 0 nan nan 93.3792 0.0000 nan 100.00%
0+ 0 nan nan 84.6822 0.0000 nan 100.00%
0 0 0.0000 31 84.6822 0.0000 99 100.00%
0+ 0 nan nan 48.4437 0.0000 nan 100.00%
0+ 0 nan nan 41.2947 0.0000 nan 100.00%
0+ 0 nan nan 35.5315 0.0000 nan 100.00%
0 2 0.0000 19 35.5315 0.0000 99 100.00%
CPXPARAM_MIP_Cuts_Gomory-Disjunctive:Gomory 0
CPXPARAM_MIP_Cuts_Gomory-Disjunctive:Disjunctive 0
22
Node Left Objective IInf Best_Integer Best_Bound ItCnt Gap
0+ 0 nan nan 93.3792 0.0000 nan 100.00%
0+ 0 nan nan 77.4137 0.0000 nan 100.00%
0 0 0.0000 23 77.4137 0.0000 115 100.00%
0+ 0 nan nan 59.6779 0.0000 nan 100.00%
0 0 0.0000 24 59.6779 Disjcuts:4 134 100.00%
0 0 0.0000 21 59.6779 Cuts:9 154 100.00%
0 0 0.0000 23 59.6779 Cuts:11 214 100.00%
0+ 0 nan nan 50.4261 0.0000 nan 100.00%
0+ 0 nan nan 42.8343 0.0000 nan 100.00%
0 2 0.0000 21 42.8343 0.0000 214 100.00%
CPXPARAM_MIP_Cuts_Gomory-Disjunctive:Gomory 0
CPXPARAM_MIP_Cuts_Gomory-Disjunctive:Disjunctive 3
23
Node Left Objective IInf Best_Integer Best_Bound ItCnt Gap
0+ 0 nan nan 93.3792 0.0000 nan 100.00%
0+ 0 nan nan 77.4137 0.0000 nan 100.00%
0 0 0.0000 26 77.4137 0.0000 103 100.00%
0+ 0 nan nan 20.9566 0.0000 nan 100.00%
0+ 0 nan nan 18.0298 0.0000 nan 100.00%
0+ 0 nan nan 17.8582 0.0000 nan 100.00%
0+ 0 nan nan 8.6955 0.0000 nan 100.00%
0 2 0.0000 14 8.6955 0.0000 103 100.00%
CPXPARAM_MIP_Cuts_Gomory-Disjunctive:Gomory 0
CPXPARAM_MIP_Cuts_Gomory-Disjunctive:Disjunctive 0
24
Node Left Objective IInf Best_Integer Best_Bound ItCnt Gap
0+ 0 nan nan 94.5045 0.0000 nan 100.00%
0+ 0 nan nan 83.7373 0.0000 nan 100.00%
0 0 0.0000 28 83.7373 0.0000 111 100.00%
0+ 0 nan nan 76.9365 0.0000 nan 100.00%
0 0 0.0000 26 76.9365 Cuts:9 130 100.00%
0+ 0 nan nan 75.3671 0.0000 nan 100.00%
0 0 0.0000 26 75.3671 Cuts:16 165 100.00%
0 0 0.0000 25 75.3671 Disjcuts:5 193 100.00%
0+ 0 nan nan 68.3534 0.0000 nan 100.00%
0+ 0 nan nan 55.5407 0.0000 nan 100.00%
0 2 0.0000 25 55.5407 0.0000 193 100.00%
CPXPARAM_MIP_Cuts_Gomory-Disjunctive:Gomory 0
CPXPARAM_MIP_Cuts_Gomory-Disjunctive:Disjunctive 8
25
Node Left Objective IInf Best_Integer Best_Bound ItCnt Gap
0+ 0 nan nan 94.5045 0.0000 nan 100.00%
0 0 0.0000 31 94.5045 0.0000 95 100.00%
0+ 0 nan nan 62.0483 0.0000 nan 100.00%
0+ 0 nan nan 53.8404 0.0000 nan 100.00%
0+ 0 nan nan 52.4296 0.0000 nan 100.00%
0+ 0 nan nan 44.3133 0.0000 nan 100.00%
0 2 0.0000 19 44.3133 0.0000 95 100.00%
CPXPARAM_MIP_Cuts_Gomory-Disjunctive:Gomory 0
CPXPARAM_MIP_Cuts_Gomory-Disjunctive:Disjunctive 0
26
Node Left Objective IInf Best_Integer Best_Bound ItCnt Gap
0+ 0 nan nan 94.5045 0.0000 nan 100.00%
0+ 0 nan nan 77.5045 0.0000 nan 100.00%
0 0 0.0000 25 77.5045 0.0000 112 100.00%
0+ 0 nan nan 70.0813 0.0000 nan 100.00%
0+ 0 nan nan 68.8610 0.0000 nan 100.00%
0+ 0 nan nan 66.2997 0.0000 nan 100.00%
0+ 0 nan nan 48.1727 0.0000 nan 100.00%
0 2 0.0000 24 48.1727 0.0000 112 100.00%
CPXPARAM_MIP_Cuts_Gomory-Disjunctive:Gomory 0
CPXPARAM_MIP_Cuts_Gomory-Disjunctive:Disjunctive 0
27
Node Left Objective IInf Best_Integer Best_Bound ItCnt Gap
0+ 0 nan nan 94.5045 0.0000 nan 100.00%
0 0 0.0000 27 94.5045 0.0000 91 100.00%
0+ 0 nan nan 38.5485 0.0000 nan 100.00%
0+ 0 nan nan 34.2660 0.0000 nan 100.00%
0+ 0 nan nan 33.2351 0.0000 nan 100.00%
0+ 0 nan nan 23.9818 0.0000 nan 100.00%
0 2 0.0000 17 23.9818 0.0000 91 100.00%
CPXPARAM_MIP_Cuts_Gomory-Disjunctive:Gomory 0
CPXPARAM_MIP_Cuts_Gomory-Disjunctive:Disjunctive 0
28
Node Left Objective IInf Best_Integer Best_Bound ItCnt Gap
0+ 0 nan nan 133.7092 0.0000 nan 100.00%
0+ 0 nan nan 129.6212 0.0000 nan 100.00%
0 0 0.0000 30 129.6212 0.0000 103 100.00%
0 0 0.0000 25 129.6212 Disjcuts:1 113 100.00%
0+ 0 nan nan 120.4832 0.0000 nan 100.00%
0 0 0.0000 28 120.4832 Cuts:31 167 100.00%
0 0 0.0000 26 120.4832 Disjcuts:1 170 100.00%
0+ 0 nan nan 114.0248 0.0000 nan 100.00%
0 2 0.0000 26 114.0248 0.0000 170 100.00%
CPXPARAM_MIP_Cuts_Gomory-Disjunctive:Gomory 0
CPXPARAM_MIP_Cuts_Gomory-Disjunctive:Disjunctive 4
29
Node Left Objective IInf Best_Integer Best_Bound ItCnt Gap
0+ 0 nan nan 133.7092 0.0000 nan 100.00%
0 0 0.0000 31 133.7092 0.0000 98 100.00%
0+ 0 nan nan 91.3907 0.0000 nan 100.00%
0+ 0 nan nan 76.1263 0.0000 nan 100.00%
0+ 0 nan nan 64.9913 0.0000 nan 100.00%
0+ 0 nan nan 53.4166 0.0000 nan 100.00%
0 2 0.0000 19 53.4166 0.0000 98 100.00%
CPXPARAM_MIP_Cuts_Gomory-Disjunctive:Gomory 0
CPXPARAM_MIP_Cuts_Gomory-Disjunctive:Disjunctive 0
30
Node Left Objective IInf Best_Integer Best_Bound ItCnt Gap
0+ 0 nan nan 133.7092 0.0000 nan 100.00%
0+ 0 nan nan 114.7297 0.0000 nan 100.00%
0 0 0.0000 25 114.7297 0.0000 108 100.00%
0+ 0 nan nan 107.8528 0.0000 nan 100.00%
0 0 0.0000 21 107.8528 Disjcuts:1 118 100.00%
0+ 0 nan nan 97.0646 0.0000 nan 100.00%
0 0 0.0000 22 97.0646 Cuts:28 162 100.00%
0 0 0.0000 22 97.0646 Cuts:9 176 100.00%
0+ 0 nan nan 96.4077 0.0000 nan 100.00%
0+ 0 nan nan 86.3577 0.0000 nan 100.00%
0 2 0.0000 20 86.3577 0.0000 176 100.00%
CPXPARAM_MIP_Cuts_Gomory-Disjunctive:Gomory 1
CPXPARAM_MIP_Cuts_Gomory-Disjunctive:Disjunctive 1
31
Node Left Objective IInf Best_Integer Best_Bound ItCnt Gap
0+ 0 nan nan 133.7092 0.0000 nan 100.00%
0 0 0.0000 29 133.7092 0.0000 94 100.00%
0+ 0 nan nan 87.7465 0.0000 nan 100.00%
0+ 0 nan nan 75.9944 0.0000 nan 100.00%
0+ 0 nan nan 73.9499 0.0000 nan 100.00%
0+ 0 nan nan 72.0403 0.0000 nan 100.00%
0+ 0 nan nan 46.0708 0.0000 nan 100.00%
0 2 0.0000 14 46.0708 0.0000 94 100.00%
CPXPARAM_MIP_Cuts_Gomory-Disjunctive:Gomory 0
CPXPARAM_MIP_Cuts_Gomory-Disjunctive:Disjunctive 0
32
Node Left Objective IInf Best_Integer Best_Bound ItCnt Gap
0+ 0 nan nan 110.7059 0.0000 nan 100.00%
0+ 0 nan nan 93.8685 0.0000 nan 100.00%
0 0 0.0000 27 93.8685 0.0000 111 100.00%
0 0 0.0000 28 93.8685 Cuts:11 126 100.00%
0 0 0.0000 27 93.8685 Cuts:9 133 100.00%
0+ 0 nan nan 80.4945 0.0000 nan 100.00%
0+ 0 nan nan 66.8630 0.0000 nan 100.00%
0 2 0.0000 26 66.8630 0.0000 133 100.00%
CPXPARAM_MIP_Cuts_Gomory-Disjunctive:Gomory 0
CPXPARAM_MIP_Cuts_Gomory-Disjunctive:Disjunctive 2
33
Node Left Objective IInf Best_Integer Best_Bound ItCnt Gap
0+ 0 nan nan 110.7059 0.0000 nan 100.00%
0+ 0 nan nan 93.8685 0.0000 nan 100.00%
0 0 0.0000 31 93.8685 0.0000 108 100.00%
0+ 0 nan nan 60.1525 0.0000 nan 100.00%
0+ 0 nan nan 56.1444 0.0000 nan 100.00%
0+ 0 nan nan 55.4236 0.0000 nan 100.00%
0+ 0 nan nan 42.9716 0.0000 nan 100.00%
0+ 0 nan nan 36.6204 0.0000 nan 100.00%
0 2 0.0000 19 36.6204 0.0000 108 100.00%
CPXPARAM_MIP_Cuts_Gomory-Disjunctive:Gomory 0
CPXPARAM_MIP_Cuts_Gomory-Disjunctive:Disjunctive 0
34
Node Left Objective IInf Best_Integer Best_Bound ItCnt Gap
0+ 0 nan nan 110.7059 0.0000 nan 100.00%
0+ 0 nan nan 74.9711 0.0000 nan 100.00%
0 0 0.0000 23 74.9711 0.0000 113 100.00%
0+ 0 nan nan 70.5384 0.0000 nan 100.00%
0 0 0.0000 22 70.5384 Cuts:6 122 100.00%
0+ 0 nan nan 70.5321 0.0000 nan 100.00%
0 0 0.0000 22 70.5321 Disjcuts:11 171 100.00%
0 0 0.0000 23 70.5321 Cuts:6 222 100.00%
0+ 0 nan nan 68.9232 0.0000 nan 100.00%
0+ 0 nan nan 60.9023 0.0000 nan 100.00%
0 2 0.0000 21 60.9023 0.0000 222 100.00%
CPXPARAM_MIP_Cuts_Gomory-Disjunctive:Gomory 2
CPXPARAM_MIP_Cuts_Gomory-Disjunctive:Disjunctive 1
35
Node Left Objective IInf Best_Integer Best_Bound ItCnt Gap
0+ 0 nan nan 110.7059 0.0000 nan 100.00%
0 0 0.0000 28 110.7059 0.0000 90 100.00%
0+ 0 nan nan 41.4039 0.0000 nan 100.00%
0+ 0 nan nan 40.3828 0.0000 nan 100.00%
0+ 0 nan nan 36.6174 0.0000 nan 100.00%
0+ 0 nan nan 28.5605 0.0000 nan 100.00%
0 2 0.0000 14 28.5605 0.0000 90 100.00%
CPXPARAM_MIP_Cuts_Gomory-Disjunctive:Gomory 0
CPXPARAM_MIP_Cuts_Gomory-Disjunctive:Disjunctive 0
36
Node Left Objective IInf Best_Integer Best_Bound ItCnt Gap
0+ 0 nan nan 123.7135 0.0000 nan 100.00%
0+ 0 nan nan 108.6148 0.0000 nan 100.00%
0 0 0.0000 28 108.6148 0.0000 112 100.00%
0+ 0 nan nan 100.1659 0.0000 nan 100.00%
0 0 0.0000 26 100.1659 Cuts:6 123 100.00%
0+ 0 nan nan 87.5594 0.0000 nan 100.00%
0 0 0.0000 26 87.5594 Cuts:18 150 100.00%
0+ 0 nan nan 78.1249 0.0000 nan 100.00%
0 0 0.0000 26 78.1249 Cuts:8 168 100.00%
0+ 0 nan nan 74.9526 0.0000 nan 100.00%
0+ 0 nan nan 66.0348 0.0000 nan 100.00%
0 2 0.0000 26 66.0348 0.0000 168 100.00%
CPXPARAM_MIP_Cuts_Gomory-Disjunctive:Gomory 1
CPXPARAM_MIP_Cuts_Gomory-Disjunctive:Disjunctive 7
37
Node Left Objective IInf Best_Integer Best_Bound ItCnt Gap
0+ 0 nan nan 123.7135 0.0000 nan 100.00%
0+ 0 nan nan 108.6148 0.0000 nan 100.00%
0 0 0.0000 31 108.6148 0.0000 99 100.00%
0+ 0 nan nan 72.9404 0.0000 nan 100.00%
0+ 0 nan nan 61.5920 0.0000 nan 100.00%
0+ 0 nan nan 50.5347 0.0000 nan 100.00%
0 2 0.0000 18 50.5347 0.0000 99 100.00%
CPXPARAM_MIP_Cuts_Gomory-Disjunctive:Gomory 0
CPXPARAM_MIP_Cuts_Gomory-Disjunctive:Disjunctive 0
38
Node Left Objective IInf Best_Integer Best_Bound ItCnt Gap
0+ 0 nan nan 123.7135 0.0000 nan 100.00%
0+ 0 nan nan 89.1896 0.0000 nan 100.00%
0 0 0.0000 23 89.1896 0.0000 103 100.00%
0+ 0 nan nan 81.0501 0.0000 nan 100.00%
0 0 0.0000 22 81.0501 Disjcuts:1 104 100.00%
0 0 0.0000 27 81.0501 Cuts:21 164 100.00%
0+ 0 nan nan 78.3770 0.0000 nan 100.00%
0 0 0.0000 23 78.3770 Disjcuts:2 183 100.00%
0 0 0.0000 24 78.3770 Cuts:12 237 100.00%
0+ 0 nan nan 76.7994 0.0000 nan 100.00%
0+ 0 nan nan 64.4644 0.0000 nan 100.00%
0+ 0 nan nan 59.8430 0.0000 nan 100.00%
0 2 0.0000 21 59.8430 0.0000 237 100.00%
CPXPARAM_MIP_Cuts_Gomory-Disjunctive:Gomory 0
CPXPARAM_MIP_Cuts_Gomory-Disjunctive:Disjunctive 2
39
Node Left Objective IInf Best_Integer Best_Bound ItCnt Gap
0+ 0 nan nan 123.7135 0.0000 nan 100.00%
0 0 0.0000 29 123.7135 0.0000 93 100.00%
0+ 0 nan nan 73.9869 0.0000 nan 100.00%
0 0 0.0000 18 73.9869 Disjcuts:1 94 100.00%
0+ 0 nan nan 67.4316 0.0000 nan 100.00%
0 0 0.0000 20 67.4316 Cuts:27 134 100.00%
0+ 0 nan nan 66.5767 0.0000 nan 100.00%
0+ 0 nan nan 48.7674 0.0000 nan 100.00%
0+ 0 nan nan 43.5536 0.0000 nan 100.00%
0 2 0.0000 14 43.5536 0.0000 134 100.00%
CPXPARAM_MIP_Cuts_Gomory-Disjunctive:Gomory 0
CPXPARAM_MIP_Cuts_Gomory-Disjunctive:Disjunctive 0
